BAYES
676
2 2 2 2 2 2 2 2 2 2 2 2 2 2 2 2 2 2 2 2 2 2 2 2 2 2 2 2 2 2 2 2 2 2 2 2 2 2 2 2 2 2 2 2 2 2 2 2 2 2 2 2 2 2 2 2 2 2 2 2 2 2 2 2 2 2 2 2 2 2 2 2 2 2 2 2 2 2 2 2 2 2 2 2 2 2 2 2 2 2 2 2 2 2 2 2 2 2 2 2 2 2 2 2 2 2 2 2 2 2 2 2 2 2 2 2 2 2 2 2 2 2 2 2 2 2 2 2 2 2 2 2 2 2 2 2 2 2 2 2 2 2 2 2 2 2 2 2 2 2 2 2 2 2 2 2 2 2 2 2 2 2 2 2 2 2 2 2 2 2 2 2 2 2 2 2 2 2 2 2 2 2 2 2 2 2 2 2 2 2 2 2 2 2 2 2 2 2 2 2 2 2 2 2 2 2 2 2 2 2 2 2 2 2 2 2 2 2 2 2 2 2 2 2 2 2 2 2 2 2 2 2 2 2 2 2 2 2 2 2 2 2 2 2 2 2 2 2 2 2 2 2 2 2 2 2 2 2 2 2 2 2 2 2 2 2 2 2 2 2 2 2 2 2 2 2 2 2 2 2 2 2 2 2 2 2 2 2 2 2 2 2 2 2 2 2 2 2 2 2 2 2 2 2 2 2 2 2 2 2 2 2 2 2 2 2 2 2 2 2 2 2 2 2 2 2 2 2 2 2 2 2 2 2 2 2 2 2 2 2 2 2 2 2 2 2 2 2 2 2 2 2 2 2 2 2 2 2 2 2 2 2 2 2 2 2 2 2 2 2 2 2 2 2 2 2 2 2 2 2 2 2 2 2 2 2 2 2 2 2 2 2 2 2 2 2 2 2 2 2 2 2 2 2 2 2 2 2 2 2 2 2 2 2 2 2 2 2 2 2 2 2 2 2 2 2 2 2 2 2 2 2 2 2 2 2 2 2 2 2 2 2 2 2 2 2 2 2 2 2 2 2 2 2 2 2 2 2 2 2 2 2 2 2 2 2 2 2 2 2 2 2 2 2 2 2 2 2 2 2 2 2 2 2 2 2 2 2 2 2 2 2 2 2 2 2 2 2 2 2 2 2 2 2 2 2 2 2 2 2 2 2 2 2 2 2 2 2 2 2 2 2 2 2 2 2 2 2 2 2 2 2 2 2 2 2 2 2 2 2 2 2 2 2 2 2 2 2 2 2 2 2 2 2 2 2 2 2 2 2 2 2 2 2 2 2 2 2 2 2 2 2 2 2 2 2 2 2 2 2 2 2 2 2 2 2 2 2 2 2 2 2 2 2 2 2 2 2 2 2 2 2 2 2 2 2 2 2 2 2 2 2 2 2 2 2 2 2 2 2 2 2 2 2 2 2 2 2 2 2 2 2 2 2 2 2 2 2 2 2 2 2 2 2 2 2 2 2 2 2 2 2 2 2 2 2 2 2 2 2 2 2 2 2 2 2 2 2 2 2 2 2 2 2 2 2
676
1 0
2 0 1
2 1 2
2 2 3
2 3 4
2 4 5
2 5 6
2 6 7
2 7 8
2 8 9
2 9 10
2 10 11
2 11 12
2 12 13
2 13 14
2 14 15
2 15 16
2 16 17
2 17 18
2 18 19
2 19 20
2 20 21
2 21 22
2 22 23
2 23 24
2 24 25
2 0 26
3 1 26 27
3 2 27 28
3 3 28 29
3 4 29 30
3 5 30 31
3 6 31 32
3 7 32 33
3 8 33 34
3 9 34 35
3 10 35 36
3 11 36 37
3 12 37 38
3 13 38 39
3 14 39 40
3 15 40 41
3 16 41 42
3 17 42 43
3 18 43 44
3 19 44 45
3 20 45 46
3 21 46 47
3 22 47 48
3 23 48 49
3 24 49 50
3 25 50 51
2 26 52
3 27 52 53
3 28 53 54
3 29 54 55
3 30 55 56
3 31 56 57
3 32 57 58
3 33 58 59
3 34 59 60
3 35 60 61
3 36 61 62
3 37 62 63
3 38 63 64
3 39 64 65
3 40 65 66
3 41 66 67
3 42 67 68
3 43 68 69
3 44 69 70
3 45 70 71
3 46 71 72
3 47 72 73
3 48 73 74
3 49 74 75
3 50 75 76
3 51 76 77
2 52 78
3 53 78 79
3 54 79 80
3 55 80 81
3 56 81 82
3 57 82 83
3 58 83 84
3 59 84 85
3 60 85 86
3 61 86 87
3 62 87 88
3 63 88 89
3 64 89 90
3 65 90 91
3 66 91 92
3 67 92 93
3 68 93 94
3 69 94 95
3 70 95 96
3 71 96 97
3 72 97 98
3 73 98 99
3 74 99 100
3 75 100 101
3 76 101 102
3 77 102 103
2 78 104
3 79 104 105
3 80 105 106
3 81 106 107
3 82 107 108
3 83 108 109
3 84 109 110
3 85 110 111
3 86 111 112
3 87 112 113
3 88 113 114
3 89 114 115
3 90 115 116
3 91 116 117
3 92 117 118
3 93 118 119
3 94 119 120
3 95 120 121
3 96 121 122
3 97 122 123
3 98 123 124
3 99 124 125
3 100 125 126
3 101 126 127
3 102 127 128
3 103 128 129
2 104 130
3 105 130 131
3 106 131 132
3 107 132 133
3 108 133 134
3 109 134 135
3 110 135 136
3 111 136 137
3 112 137 138
3 113 138 139
3 114 139 140
3 115 140 141
3 116 141 142
3 117 142 143
3 118 143 144
3 119 144 145
3 120 145 146
3 121 146 147
3 122 147 148
3 123 148 149
3 124 149 150
3 125 150 151
3 126 151 152
3 127 152 153
3 128 153 154
3 129 154 155
2 130 156
3 131 156 157
3 132 157 158
3 133 158 159
3 134 159 160
3 135 160 161
3 136 161 162
3 137 162 163
3 138 163 164
3 139 164 165
3 140 165 166
3 141 166 167
3 142 167 168
3 143 168 169
3 144 169 170
3 145 170 171
3 146 171 172
3 147 172 173
3 148 173 174
3 149 174 175
3 150 175 176
3 151 176 177
3 152 177 178
3 153 178 179
3 154 179 180
3 155 180 181
2 156 182
3 157 182 183
3 158 183 184
3 159 184 185
3 160 185 186
3 161 186 187
3 162 187 188
3 163 188 189
3 164 189 190
3 165 190 191
3 166 191 192
3 167 192 193
3 168 193 194
3 169 194 195
3 170 195 196
3 171 196 197
3 172 197 198
3 173 198 199
3 174 199 200
3 175 200 201
3 176 201 202
3 177 202 203
3 178 203 204
3 179 204 205
3 180 205 206
3 181 206 207
2 182 208
3 183 208 209
3 184 209 210
3 185 210 211
3 186 211 212
3 187 212 213
3 188 213 214
3 189 214 215
3 190 215 216
3 191 216 217
3 192 217 218
3 193 218 219
3 194 219 220
3 195 220 221
3 196 221 222
3 197 222 223
3 198 223 224
3 199 224 225
3 200 225 226
3 201 226 227
3 202 227 228
3 203 228 229
3 204 229 230
3 205 230 231
3 206 231 232
3 207 232 233
2 208 234
3 209 234 235
3 210 235 236
3 211 236 237
3 212 237 238
3 213 238 239
3 214 239 240
3 215 240 241
3 216 241 242
3 217 242 243
3 218 243 244
3 219 244 245
3 220 245 246
3 221 246 247
3 222 247 248
3 223 248 249
3 224 249 250
3 225 250 251
3 226 251 252
3 227 252 253
3 228 253 254
3 229 254 255
3 230 255 256
3 231 256 257
3 232 257 258
3 233 258 259
2 234 260
3 235 260 261
3 236 261 262
3 237 262 263
3 238 263 264
3 239 264 265
3 240 265 266
3 241 266 267
3 242 267 268
3 243 268 269
3 244 269 270
3 245 270 271
3 246 271 272
3 247 272 273
3 248 273 274
3 249 274 275
3 250 275 276
3 251 276 277
3 252 277 278
3 253 278 279
3 254 279 280
3 255 280 281
3 256 281 282
3 257 282 283
3 258 283 284
3 259 284 285
2 260 286
3 261 286 287
3 262 287 288
3 263 288 289
3 264 289 290
3 265 290 291
3 266 291 292
3 267 292 293
3 268 293 294
3 269 294 295
3 270 295 296
3 271 296 297
3 272 297 298
3 273 298 299
3 274 299 300
3 275 300 301
3 276 301 302
3 277 302 303
3 278 303 304
3 279 304 305
3 280 305 306
3 281 306 307
3 282 307 308
3 283 308 309
3 284 309 310
3 285 310 311
2 286 312
3 287 312 313
3 288 313 314
3 289 314 315
3 290 315 316
3 291 316 317
3 292 317 318
3 293 318 319
3 294 319 320
3 295 320 321
3 296 321 322
3 297 322 323
3 298 323 324
3 299 324 325
3 300 325 326
3 301 326 327
3 302 327 328
3 303 328 329
3 304 329 330
3 305 330 331
3 306 331 332
3 307 332 333
3 308 333 334
3 309 334 335
3 310 335 336
3 311 336 337
2 312 338
3 313 338 339
3 314 339 340
3 315 340 341
3 316 341 342
3 317 342 343
3 318 343 344
3 319 344 345
3 320 345 346
3 321 346 347
3 322 347 348
3 323 348 349
3 324 349 350
3 325 350 351
3 326 351 352
3 327 352 353
3 328 353 354
3 329 354 355
3 330 355 356
3 331 356 357
3 332 357 358
3 333 358 359
3 334 359 360
3 335 360 361
3 336 361 362
3 337 362 363
2 338 364
3 339 364 365
3 340 365 366
3 341 366 367
3 342 367 368
3 343 368 369
3 344 369 370
3 345 370 371
3 346 371 372
3 347 372 373
3 348 373 374
3 349 374 375
3 350 375 376
3 351 376 377
3 352 377 378
3 353 378 379
3 354 379 380
3 355 380 381
3 356 381 382
3 357 382 383
3 358 383 384
3 359 384 385
3 360 385 386
3 361 386 387
3 362 387 388
3 363 388 389
2 364 390
3 365 390 391
3 366 391 392
3 367 392 393
3 368 393 394
3 369 394 395
3 370 395 396
3 371 396 397
3 372 397 398
3 373 398 399
3 374 399 400
3 375 400 401
3 376 401 402
3 377 402 403
3 378 403 404
3 379 404 405
3 380 405 406
3 381 406 407
3 382 407 408
3 383 408 409
3 384 409 410
3 385 410 411
3 386 411 412
3 387 412 413
3 388 413 414
3 389 414 415
2 390 416
3 391 416 417
3 392 417 418
3 393 418 419
3 394 419 420
3 395 420 421
3 396 421 422
3 397 422 423
3 398 423 424
3 399 424 425
3 400 425 426
3 401 426 427
3 402 427 428
3 403 428 429
3 404 429 430
3 405 430 431
3 406 431 432
3 407 432 433
3 408 433 434
3 409 434 435
3 410 435 436
3 411 436 437
3 412 437 438
3 413 438 439
3 414 439 440
3 415 440 441
2 416 442
3 417 442 443
3 418 443 444
3 419 444 445
3 420 445 446
3 421 446 447
3 422 447 448
3 423 448 449
3 424 449 450
3 425 450 451
3 426 451 452
3 427 452 453
3 428 453 454
3 429 454 455
3 430 455 456
3 431 456 457
3 432 457 458
3 433 458 459
3 434 459 460
3 435 460 461
3 436 461 462
3 437 462 463
3 438 463 464
3 439 464 465
3 440 465 466
3 441 466 467
2 442 468
3 443 468 469
3 444 469 470
3 445 470 471
3 446 471 472
3 447 472 473
3 448 473 474
3 449 474 475
3 450 475 476
3 451 476 477
3 452 477 478
3 453 478 479
3 454 479 480
3 455 480 481
3 456 481 482
3 457 482 483
3 458 483 484
3 459 484 485
3 460 485 486
3 461 486 487
3 462 487 488
3 463 488 489
3 464 489 490
3 465 490 491
3 466 491 492
3 467 492 493
2 468 494
3 469 494 495
3 470 495 496
3 471 496 497
3 472 497 498
3 473 498 499
3 474 499 500
3 475 500 501
3 476 501 502
3 477 502 503
3 478 503 504
3 479 504 505
3 480 505 506
3 481 506 507
3 482 507 508
3 483 508 509
3 484 509 510
3 485 510 511
3 486 511 512
3 487 512 513
3 488 513 514
3 489 514 515
3 490 515 516
3 491 516 517
3 492 517 518
3 493 518 519
2 494 520
3 495 520 521
3 496 521 522
3 497 522 523
3 498 523 524
3 499 524 525
3 500 525 526
3 501 526 527
3 502 527 528
3 503 528 529
3 504 529 530
3 505 530 531
3 506 531 532
3 507 532 533
3 508 533 534
3 509 534 535
3 510 535 536
3 511 536 537
3 512 537 538
3 513 538 539
3 514 539 540
3 515 540 541
3 516 541 542
3 517 542 543
3 518 543 544
3 519 544 545
2 520 546
3 521 546 547
3 522 547 548
3 523 548 549
3 524 549 550
3 525 550 551
3 526 551 552
3 527 552 553
3 528 553 554
3 529 554 555
3 530 555 556
3 531 556 557
3 532 557 558
3 533 558 559
3 534 559 560
3 535 560 561
3 536 561 562
3 537 562 563
3 538 563 564
3 539 564 565
3 540 565 566
3 541 566 567
3 542 567 568
3 543 568 569
3 544 569 570
3 545 570 571
2 546 572
3 547 572 573
3 548 573 574
3 549 574 575
3 550 575 576
3 551 576 577
3 552 577 578
3 553 578 579
3 554 579 580
3 555 580 581
3 556 581 582
3 557 582 583
3 558 583 584
3 559 584 585
3 560 585 586
3 561 586 587
3 562 587 588
3 563 588 589
3 564 589 590
3 565 590 591
3 566 591 592
3 567 592 593
3 568 593 594
3 569 594 595
3 570 595 596
3 571 596 597
2 572 598
3 573 598 599
3 574 599 600
3 575 600 601
3 576 601 602
3 577 602 603
3 578 603 604
3 579 604 605
3 580 605 606
3 581 606 607
3 582 607 608
3 583 608 609
3 584 609 610
3 585 610 611
3 586 611 612
3 587 612 613
3 588 613 614
3 589 614 615
3 590 615 616
3 591 616 617
3 592 617 618
3 593 618 619
3 594 619 620
3 595 620 621
3 596 621 622
3 597 622 623
2 598 624
3 599 624 625
3 600 625 626
3 601 626 627
3 602 627 628
3 603 628 629
3 604 629 630
3 605 630 631
3 606 631 632
3 607 632 633
3 608 633 634
3 609 634 635
3 610 635 636
3 611 636 637
3 612 637 638
3 613 638 639
3 614 639 640
3 615 640 641
3 616 641 642
3 617 642 643
3 618 643 644
3 619 644 645
3 620 645 646
3 621 646 647
3 622 647 648
3 623 648 649
2 624 650
3 625 650 651
3 626 651 652
3 627 652 653
3 628 653 654
3 629 654 655
3 630 655 656
3 631 656 657
3 632 657 658
3 633 658 659
3 634 659 660
3 635 660 661
3 636 661 662
3 637 662 663
3 638 663 664
3 639 664 665
3 640 665 666
3 641 666 667
3 642 667 668
3 643 668 669
3 644 669 670
3 645 670 671
3 646 671 672
3 647 672 673
3 648 673 674
3 649 674 675

2
0.383978 0.616022
4
0.947195 0.0528055 0.387186 0.612814
4
1.0 0.0 0.0 1.0
4
0.0 1.0 1.0 0.0
4
0.0 1.0 1.0 0.0
4
0.116252 0.883748 0.684517 0.315483
4
0.0358415 0.964159 0.688359 0.311641
4
1.0 0.0 0.0 1.0
4
0.531551 0.468449 0.418088 0.581912
4
0.312421 0.687579 0.976843 0.0231569
4
0.288333 0.711667 0.50445 0.49555
4
0.0 1.0 1.0 0.0
4
0.0 1.0 1.0 0.0
4
0.0 1.0 1.0 0.0
4
1.0 0.0 0.0 1.0
4
1.0 0.0 0.0 1.0
4
1.0 0.0 0.0 1.0
4
1.0 0.0 0.0 1.0
4
0.0 1.0 1.0 0.0
4
0.0 1.0 1.0 0.0
4
1.0 0.0 0.0 1.0
4
0.0779704 0.92203 0.00464277 0.995357
4
0.0 1.0 1.0 0.0
4
0.800041 0.199959 0.472901 0.527099
4
1.0 0.0 0.0 1.0
4
0.654614 0.345386 0.346148 0.653852
4
1.0 0.0 0.0 1.0
8
0.29441 0.70559 0.697487 0.302513 0.0168379 0.983162 0.0184741 0.981526
8
1.0 0.0 0.0 1.0 0.0 1.0 0.0 1.0
8
1.0 0.0 0.0 1.0 0.0 1.0 0.0 1.0
8
0.0 1.0 0.0 1.0 0.0 1.0 1.0 0.0
8
0.808453 0.191547 0.615253 0.384747 0.983136 0.0168639 0.785804 0.214196
8
1.0 0.0 1.0 0.0 0.0 1.0 1.0 0.0
8
1.0 0.0 1.0 0.0 0.0 1.0 1.0 0.0
8
0.0 1.0 0.0 1.0 1.0 0.0 0.0 1.0
8
0.0 1.0 1.0 0.0 1.0 0.0 1.0 0.0
8
1.0 0.0 0.0 1.0 1.0 0.0 0.0 1.0
8
1.0 0.0 0.0 1.0 1.0 0.0 0.0 1.0
8
1.0 0.0 1.0 0.0 1.0 0.0 0.0 1.0
8
0.0 1.0 1.0 0.0 0.0 1.0 0.0 1.0
8
0.0 1.0 0.0 1.0 0.0 1.0 1.0 0.0
8
1.0 0.0 1.0 0.0 1.0 0.0 0.0 1.0
8
0.0 1.0 1.0 0.0 1.0 0.0 1.0 0.0
8
1.0 0.0 1.0 0.0 0.0 1.0 0.0 1.0
8
1.0 0.0 1.0 0.0 0.0 1.0 1.0 0.0
8
0.0 1.0 1.0 0.0 1.0 0.0 0.0 1.0
8
1.0 0.0 1.0 0.0 0.0 1.0 1.0 0.0
8
0.285137 0.714863 0.983906 0.0160935 0.907067 0.092933 0.410416 0.589584
8
0.0 1.0 1.0 0.0 1.0 0.0 1.0 0.0
8
0.0 1.0 0.0 1.0 0.0 1.0 1.0 0.0
8
0.0 1.0 0.0 1.0 0.0 1.0 1.0 0.0
8
0.353111 0.646889 0.930108 0.069892 0.365073 0.634927 0.27294 0.72706
4
0.0 1.0 1.0 0.0
8
0.159123 0.840877 0.0302959 0.969704 0.213501 0.786499 0.952634 0.0473665
8
1.0 0.0 1.0 0.0 0.0 1.0 0.0 1.0
8
1.0 0.0 1.0 0.0 0.0 1.0 1.0 0.0
8
1.0 0.0 0.0 1.0 1.0 0.0 0.0 1.0
8
1.0 0.0 0.0 1.0 1.0 0.0 1.0 0.0
8
0.700052 0.299948 0.178143 0.821857 0.269939 0.730061 0.743174 0.256826
8
0.0 1.0 1.0 0.0 0.0 1.0 0.0 1.0
8
0.743105 0.256895 0.521894 0.478106 0.714631 0.285369 0.468953 0.531047
8
0.0 1.0 1.0 0.0 1.0 0.0 1.0 0.0
8
1.0 0.0 0.0 1.0 1.0 0.0 0.0 1.0
8
1.0 0.0 1.0 0.0 1.0 0.0 0.0 1.0
8
0.0 1.0 1.0 0.0 1.0 0.0 0.0 1.0
8
1.0 0.0 0.0 1.0 0.0 1.0 0.0 1.0
8
0.20381 0.79619 0.868662 0.131338 0.481076 0.518924 0.672764 0.327236
8
0.0 1.0 0.0 1.0 0.0 1.0 1.0 0.0
8
0.79106 0.20894 0.165292 0.834708 0.549597 0.450403 0.545682 0.454318
8
1.0 0.0 0.0 1.0 1.0 0.0 1.0 0.0
8
1.0 0.0 1.0 0.0 0.0 1.0 1.0 0.0
8
1.0 0.0 0.0 1.0 1.0 0.0 1.0 0.0
8
0.980845 0.0191545 0.600493 0.399507 0.345929 0.654071 0.653609 0.346391
8
1.0 0.0 1.0 0.0 1.0 0.0 0.0 1.0
8
0.0 1.0 0.0 1.0 1.0 0.0 1.0 0.0
8
0.0 1.0 0.0 1.0 1.0 0.0 0.0 1.0
8
0.0 1.0 1.0 0.0 0.0 1.0 1.0 0.0
8
0.0496724 0.950328 0.712288 0.287712 0.900289 0.0997105 0.826707 0.173293
4
1.0 0.0 0.0 1.0
8
0.0446104 0.95539 0.111072 0.888928 0.461162 0.538838 0.242632 0.757368
8
0.30791 0.69209 0.518172 0.481828 0.180356 0.819644 0.938345 0.061655
8
1.0 0.0 1.0 0.0 0.0 1.0 1.0 0.0
8
0.0 1.0 0.0 1.0 1.0 0.0 0.0 1.0
8
0.69635 0.30365 0.182851 0.817149 0.224908 0.775092 0.498232 0.501768
8
1.0 0.0 0.0 1.0 0.0 1.0 0.0 1.0
8
0.0 1.0 0.0 1.0 0.0 1.0 1.0 0.0
8
1.0 0.0 0.0 1.0 1.0 0.0 0.0 1.0
8
0.0 1.0 0.0 1.0 1.0 0.0 1.0 0.0
8
1.0 0.0 1.0 0.0 0.0 1.0 0.0 1.0
8
0.0 1.0 1.0 0.0 0.0 1.0 0.0 1.0
8
0.0 1.0 1.0 0.0 1.0 0.0 0.0 1.0
8
0.17476 0.82524 0.758913 0.241087 0.20162 0.79838 0.449496 0.550504
8
1.0 0.0 0.0 1.0 0.0 1.0 0.0 1.0
8
0.296916 0.703084 0.828401 0.171599 0.777562 0.222438 0.989493 0.0105066
8
0.178927 0.821073 0.326124 0.673876 0.764968 0.235032 0.513527 0.486473
8
1.0 0.0 0.0 1.0 1.0 0.0 1.0 0.0
8
1.0 0.0 1.0 0.0 0.0 1.0 0.0 1.0
8
0.0 1.0 1.0 0.0 0.0 1.0 0.0 1.0
8
0.0 1.0 1.0 0.0 0.0 1.0 1.0 0.0
8
1.0 0.0 0.0 1.0 0.0 1.0 1.0 0.0
8
0.0 1.0 1.0 0.0 0.0 1.0 0.0 1.0
8
0.433026 0.566974 0.07459 0.92541 0.651485 0.348515 0.291487 0.708513
8
0.854482 0.145518 0.762523 0.237477 0.473217 0.526783 0.451862 0.548138
8
0.0 1.0 0.0 1.0 0.0 1.0 1.0 0.0
4
1.0 0.0 0.0 1.0
8
1.0 0.0 1.0 0.0 0.0 1.0 1.0 0.0
8
0.0 1.0 1.0 0.0 0.0 1.0 1.0 0.0
8
0.688159 0.311841 0.102936 0.897064 0.695692 0.304308 0.593835 0.406165
8
1.0 0.0 1.0 0.0 0.0 1.0 1.0 0.0
8
0.0 1.0 0.0 1.0 0.0 1.0 1.0 0.0
8
0.0 1.0 0.0 1.0 1.0 0.0 1.0 0.0
8
1.0 0.0 0.0 1.0 0.0 1.0 1.0 0.0
8
0.474027 0.525973 0.660738 0.339262 0.6435 0.3565 0.770036 0.229964
8
1.0 0.0 0.0 1.0 0.0 1.0 1.0 0.0
8
1.0 0.0 0.0 1.0 0.0 1.0 1.0 0.0
8
0.0 1.0 1.0 0.0 1.0 0.0 0.0 1.0
8
0.723819 0.276181 0.325422 0.674578 0.701889 0.298111 0.0537926 0.946207
8
0.0 1.0 1.0 0.0 0.0 1.0 0.0 1.0
8
1.0 0.0 1.0 0.0 0.0 1.0 0.0 1.0
8
1.0 0.0 1.0 0.0 0.0 1.0 0.0 1.0
8
1.0 0.0 0.0 1.0 1.0 0.0 0.0 1.0
8
1.0 0.0 0.0 1.0 0.0 1.0 1.0 0.0
8
0.742279 0.257721 0.560273 0.439727 0.5615 0.4385 0.796072 0.203928
8
0.0 1.0 1.0 0.0 1.0 0.0 0.0 1.0
8
0.0 1.0 0.0 1.0 0.0 1.0 1.0 0.0
8
0.0 1.0 0.0 1.0 1.0 0.0 1.0 0.0
8
0.0 1.0 0.0 1.0 1.0 0.0 1.0 0.0
8
1.0 0.0 0.0 1.0 1.0 0.0 1.0 0.0
8
0.208225 0.791775 0.0829795 0.91702 0.338381 0.661619 0.769725 0.230275
8
0.000317173 0.999683 0.777226 0.222774 0.660463 0.339537 0.384669 0.615331
4
0.0 1.0 1.0 0.0
8
0.0 1.0 0.0 1.0 0.0 1.0 1.0 0.0
8
0.0 1.0 0.0 1.0 1.0 0.0 1.0 0.0
8
0.0 1.0 1.0 0.0 1.0 0.0 1.0 0.0
8
1.0 0.0 0.0 1.0 1.0 0.0 0.0 1.0
8
0.853131 0.146869 0.0774127 0.922587 0.574071 0.425929 0.732183 0.267817
8
0.0 1.0 1.0 0.0 1.0 0.0 0.0 1.0
8
0.0 1.0 1.0 0.0 1.0 0.0 0.0 1.0
8
0.728578 0.271422 0.838141 0.161859 0.558627 0.441373 0.829469 0.170531
8
0.719069 0.280931 0.62226 0.37774 0.107028 0.892972 0.136735 0.863265
8
0.536479 0.463521 0.0976583 0.902342 0.465888 0.534112 0.306631 0.693369
8
0.270234 0.729766 0.159762 0.840238 0.914103 0.0858974 0.844304 0.155696
8
0.991833 0.00816747 0.195601 0.804399 0.284591 0.715409 0.454231 0.545769
8
1.0 0.0 1.0 0.0 1.0 0.0 0.0 1.0
8
1.0 0.0 1.0 0.0 1.0 0.0 0.0 1.0
8
1.0 0.0 1.0 0.0 1.0 0.0 0.0 1.0
8
1.0 0.0 1.0 0.0 0.0 1.0 1.0 0.0
8
1.0 0.0 1.0 0.0 0.0 1.0 1.0 0.0
8
0.637935 0.362065 0.285598 0.714402 0.395574 0.604426 0.806798 0.193202
8
0.770677 0.229323 0.7269 0.2731 0.811378 0.188622 0.931883 0.068117
8
1.0 0.0 0.0 1.0 1.0 0.0 1.0 0.0
8
0.623108 0.376892 0.713813 0.286187 0.0365835 0.963417 0.724168 0.275832
8
1.0 0.0 1.0 0.0 0.0 1.0 1.0 0.0
8
0.501546 0.498454 0.737616 0.262384 0.907804 0.0921959 0.94388 0.0561196
8
0.0 1.0 0.0 1.0 1.0 0.0 0.0 1.0
8
0.0 1.0 0.0 1.0 1.0 0.0 0.0 1.0
4
0.0 1.0 1.0 0.0
8
0.187827 0.812173 0.908605 0.0913947 0.808904 0.191096 0.810935 0.189065
8
0.0 1.0 1.0 0.0 1.0 0.0 1.0 0.0
8
1.0 0.0 1.0 0.0 1.0 0.0 0.0 1.0
8
0.324086 0.675914 0.547083 0.452917 0.629534 0.370466 0.173233 0.826767
8
1.0 0.0 0.0 1.0 0.0 1.0 1.0 0.0
8
0.0 1.0 0.0 1.0 1.0 0.0 1.0 0.0
8
1.0 0.0 0.0 1.0 1.0 0.0 1.0 0.0
8
1.0 0.0 0.0 1.0 1.0 0.0 1.0 0.0
8
0.0 1.0 1.0 0.0 0.0 1.0 0.0 1.0
8
0.680702 0.319298 0.112014 0.887986 0.0675217 0.932478 0.8096 0.1904
8
0.485476 0.514524 0.327112 0.672888 0.443288 0.556712 0.918828 0.0811721
8
0.955951 0.044049 0.299461 0.700539 0.122206 0.877794 0.655548 0.344452
8
0.0 1.0 1.0 0.0 0.0 1.0 1.0 0.0
8
1.0 0.0 0.0 1.0 0.0 1.0 0.0 1.0
8
0.0 1.0 0.0 1.0 1.0 0.0 1.0 0.0
8
0.0 1.0 1.0 0.0 0.0 1.0 1.0 0.0
8
1.0 0.0 0.0 1.0 1.0 0.0 1.0 0.0
8
0.0 1.0 1.0 0.0 1.0 0.0 1.0 0.0
8
0.277166 0.722834 0.959023 0.0409771 0.248831 0.751169 0.903818 0.0961817
8
0.0 1.0 1.0 0.0 1.0 0.0 0.0 1.0
8
1.0 0.0 1.0 0.0 0.0 1.0 0.0 1.0
8
1.0 0.0 0.0 1.0 1.0 0.0 1.0 0.0
8
0.0 1.0 0.0 1.0 1.0 0.0 1.0 0.0
8
0.0 1.0 0.0 1.0 0.0 1.0 1.0 0.0
8
1.0 0.0 1.0 0.0 0.0 1.0 1.0 0.0
4
0.0 1.0 1.0 0.0
8
0.681588 0.318412 0.780382 0.219618 0.486392 0.513608 0.104056 0.895944
8
1.0 0.0 1.0 0.0 0.0 1.0 1.0 0.0
8
0.0 1.0 0.0 1.0 1.0 0.0 1.0 0.0
8
1.0 0.0 1.0 0.0 1.0 0.0 0.0 1.0
8
1.0 0.0 0.0 1.0 0.0 1.0 0.0 1.0
8
0.0 1.0 0.0 1.0 1.0 0.0 1.0 0.0
8
0.0 1.0 1.0 0.0 0.0 1.0 0.0 1.0
8
1.0 0.0 1.0 0.0 1.0 0.0 0.0 1.0
8
0.0 1.0 0.0 1.0 1.0 0.0 1.0 0.0
8
0.0 1.0 0.0 1.0 0.0 1.0 1.0 0.0
8
1.0 0.0 1.0 0.0 0.0 1.0 0.0 1.0
8
0.0 1.0 0.0 1.0 0.0 1.0 1.0 0.0
8
0.0 1.0 0.0 1.0 0.0 1.0 1.0 0.0
8
1.0 0.0 0.0 1.0 0.0 1.0 0.0 1.0
8
0.269945 0.730055 0.420849 0.579151 0.0334875 0.966512 0.992838 0.00716206
8
0.0 1.0 1.0 0.0 0.0 1.0 0.0 1.0
8
0.0 1.0 1.0 0.0 0.0 1.0 0.0 1.0
8
1.0 0.0 0.0 1.0 0.0 1.0 1.0 0.0
8
0.0 1.0 1.0 0.0 1.0 0.0 1.0 0.0
8
0.0 1.0 1.0 0.0 1.0 0.0 1.0 0.0
8
1.0 0.0 1.0 0.0 1.0 0.0 0.0 1.0
8
1.0 0.0 0.0 1.0 0.0 1.0 1.0 0.0
8
0.0 1.0 1.0 0.0 0.0 1.0 0.0 1.0
8
1.0 0.0 0.0 1.0 0.0 1.0 0.0 1.0
8
0.81424 0.18576 0.344743 0.655257 0.561706 0.438294 0.220803 0.779197
4
0.0 1.0 1.0 0.0
8
1.0 0.0 1.0 0.0 1.0 0.0 0.0 1.0
8
1.0 0.0 1.0 0.0 0.0 1.0 0.0 1.0
8
0.0 1.0 1.0 0.0 0.0 1.0 0.0 1.0
8
0.0 1.0 1.0 0.0 0.0 1.0 0.0 1.0
8
0.0 1.0 1.0 0.0 0.0 1.0 0.0 1.0
8
1.0 0.0 1.0 0.0 0.0 1.0 1.0 0.0
8
0.0 1.0 0.0 1.0 0.0 1.0 1.0 0.0
8
1.0 0.0 0.0 1.0 1.0 0.0 1.0 0.0
8
1.0 0.0 1.0 0.0 0.0 1.0 1.0 0.0
8
0.0 1.0 1.0 0.0 0.0 1.0 0.0 1.0
8
0.0 1.0 1.0 0.0 0.0 1.0 0.0 1.0
8
1.0 0.0 1.0 0.0 0.0 1.0 1.0 0.0
8
0.972636 0.027364 0.217297 0.782703 0.790835 0.209165 0.803288 0.196712
8
0.0812212 0.918779 0.566233 0.433767 0.724635 0.275365 0.0245831 0.975417
8
1.0 0.0 0.0 1.0 1.0 0.0 1.0 0.0
8
1.0 0.0 1.0 0.0 0.0 1.0 1.0 0.0
8
1.0 0.0 1.0 0.0 1.0 0.0 0.0 1.0
8
0.64155 0.35845 0.224143 0.775857 0.943538 0.0564623 0.213093 0.786907
8
0.0 1.0 0.0 1.0 0.0 1.0 1.0 0.0
8
0.455312 0.544688 0.780204 0.219796 0.55525 0.44475 0.179946 0.820054
8
0.959971 0.0400286 0.428954 0.571046 0.752294 0.247706 0.467049 0.532951
8
1.0 0.0 1.0 0.0 1.0 0.0 0.0 1.0
8
1.0 0.0 1.0 0.0 0.0 1.0 0.0 1.0
8
1.0 0.0 0.0 1.0 0.0 1.0 0.0 1.0
8
1.0 0.0 0.0 1.0 1.0 0.0 1.0 0.0
4
0.609349 0.390651 0.506999 0.493001
8
1.0 0.0 1.0 0.0 1.0 0.0 0.0 1.0
8
0.0 1.0 1.0 0.0 1.0 0.0 1.0 0.0
8
1.0 0.0 1.0 0.0 1.0 0.0 0.0 1.0
8
1.0 0.0 0.0 1.0 0.0 1.0 1.0 0.0
8
1.0 0.0 1.0 0.0 0.0 1.0 1.0 0.0
8
1.0 0.0 1.0 0.0 0.0 1.0 1.0 0.0
8
1.0 0.0 1.0 0.0 0.0 1.0 0.0 1.0
8
0.0 1.0 1.0 0.0 1.0 0.0 0.0 1.0
8
0.100239 0.899761 0.620372 0.379628 0.559504 0.440496 0.906068 0.0939316
8
1.0 0.0 1.0 0.0 1.0 0.0 0.0 1.0
8
0.0 1.0 1.0 0.0 1.0 0.0 0.0 1.0
8
1.0 0.0 1.0 0.0 1.0 0.0 0.0 1.0
8
0.0 1.0 1.0 0.0 0.0 1.0 1.0 0.0
8
0.0 1.0 0.0 1.0 1.0 0.0 1.0 0.0
8
0.432411 0.567589 0.0965378 0.903462 0.55858 0.44142 0.33848 0.66152
8
0.0 1.0 0.0 1.0 0.0 1.0 1.0 0.0
8
0.383655 0.616345 0.288969 0.711031 0.272189 0.727811 0.429914 0.570086
8
0.0 1.0 0.0 1.0 1.0 0.0 1.0 0.0
8
1.0 0.0 0.0 1.0 0.0 1.0 1.0 0.0
8
0.0 1.0 0.0 1.0 1.0 0.0 0.0 1.0
8
0.873524 0.126476 0.674015 0.325985 0.00414288 0.995857 0.432103 0.567897
8
0.0 1.0 0.0 1.0 1.0 0.0 0.0 1.0
8
0.949242 0.0507582 0.58089 0.41911 0.0400836 0.959916 0.221431 0.778569
8
1.0 0.0 1.0 0.0 0.0 1.0 0.0 1.0
8
1.0 0.0 1.0 0.0 0.0 1.0 0.0 1.0
4
1.0 0.0 0.0 1.0
8
1.0 0.0 1.0 0.0 0.0 1.0 0.0 1.0
8
0.0 1.0 1.0 0.0 0.0 1.0 1.0 0.0
8
0.0 1.0 0.0 1.0 0.0 1.0 1.0 0.0
8
1.0 0.0 1.0 0.0 0.0 1.0 1.0 0.0
8
1.0 0.0 0.0 1.0 1.0 0.0 1.0 0.0
8
0.0 1.0 1.0 0.0 0.0 1.0 1.0 0.0
8
1.0 0.0 0.0 1.0 0.0 1.0 1.0 0.0
8
0.0 1.0 0.0 1.0 1.0 0.0 0.0 1.0
8
0.0 1.0 0.0 1.0 1.0 0.0 1.0 0.0
8
0.0 1.0 1.0 0.0 1.0 0.0 1.0 0.0
8
0.0 1.0 0.0 1.0 1.0 0.0 0.0 1.0
8
0.0 1.0 1.0 0.0 0.0 1.0 0.0 1.0
8
1.0 0.0 0.0 1.0 0.0 1.0 0.0 1.0
8
0.936482 0.0635179 0.249866 0.750134 0.391372 0.608628 0.578021 0.421979
8
0.52882 0.47118 0.642137 0.357863 0.741318 0.258682 0.923171 0.0768287
8
0.0 1.0 1.0 0.0 0.0 1.0 1.0 0.0
8
0.285945 0.714055 0.882051 0.117949 0.796999 0.203001 0.732829 0.267171
8
1.0 0.0 0.0 1.0 0.0 1.0 1.0 0.0
8
0.0 1.0 1.0 0.0 0.0 1.0 0.0 1.0
8
1.0 0.0 0.0 1.0 0.0 1.0 1.0 0.0
8
0.0 1.0 0.0 1.0 1.0 0.0 0.0 1.0
8
1.0 0.0 1.0 0.0 0.0 1.0 0.0 1.0
8
1.0 0.0 0.0 1.0 0.0 1.0 1.0 0.0
8
0.0560509 0.943949 0.536934 0.463066 0.52863 0.47137 0.375784 0.624216
8
0.0 1.0 1.0 0.0 0.0 1.0 0.0 1.0
4
0.0 1.0 1.0 0.0
8
0.0 1.0 1.0 0.0 0.0 1.0 0.0 1.0
8
0.0 1.0 0.0 1.0 0.0 1.0 1.0 0.0
8
0.0 1.0 0.0 1.0 1.0 0.0 1.0 0.0
8
0.0 1.0 1.0 0.0 0.0 1.0 1.0 0.0
8
0.0 1.0 0.0 1.0 1.0 0.0 0.0 1.0
8
1.0 0.0 0.0 1.0 0.0 1.0 0.0 1.0
8
0.0 1.0 1.0 0.0 0.0 1.0 0.0 1.0
8
0.0 1.0 1.0 0.0 0.0 1.0 0.0 1.0
8
1.0 0.0 0.0 1.0 0.0 1.0 0.0 1.0
8
0.71162 0.28838 0.921979 0.0780207 0.43553 0.56447 0.0226415 0.977359
8
0.0 1.0 1.0 0.0 0.0 1.0 1.0 0.0
8
0.0 1.0 1.0 0.0 0.0 1.0 1.0 0.0
8
0.914784 0.0852155 0.165066 0.834934 0.879744 0.120256 0.203553 0.796447
8
1.0 0.0 1.0 0.0 0.0 1.0 1.0 0.0
8
0.0 1.0 1.0 0.0 0.0 1.0 0.0 1.0
8
1.0 0.0 0.0 1.0 1.0 0.0 1.0 0.0
8
0.265889 0.734111 0.104928 0.895072 0.0171707 0.982829 0.0771658 0.922834
8
0.871486 0.128514 0.0562207 0.943779 0.374987 0.625013 0.274099 0.725901
8
0.289771 0.710229 0.439165 0.560835 0.710575 0.289425 0.493324 0.506676
8
1.0 0.0 1.0 0.0 0.0 1.0 0.0 1.0
8
0.0117166 0.988283 0.213246 0.786754 0.495981 0.504019 0.34846 0.65154
8
1.0 0.0 1.0 0.0 1.0 0.0 0.0 1.0
8
1.0 0.0 1.0 0.0 1.0 0.0 0.0 1.0
8
0.344671 0.655329 0.0175401 0.98246 0.035649 0.964351 0.719658 0.280342
8
0.0 1.0 1.0 0.0 0.0 1.0 1.0 0.0
4
0.0 1.0 1.0 0.0
8
1.0 0.0 1.0 0.0 1.0 0.0 0.0 1.0
8
1.0 0.0 0.0 1.0 1.0 0.0 1.0 0.0
8
0.0 1.0 0.0 1.0 1.0 0.0 1.0 0.0
8
1.0 0.0 0.0 1.0 1.0 0.0 1.0 0.0
8
0.0 1.0 0.0 1.0 1.0 0.0 0.0 1.0
8
1.0 0.0 0.0 1.0 0.0 1.0 0.0 1.0
8
1.0 0.0 1.0 0.0 1.0 0.0 0.0 1.0
8
0.0 1.0 1.0 0.0 1.0 0.0 1.0 0.0
8
1.0 0.0 1.0 0.0 0.0 1.0 1.0 0.0
8
0.0 1.0 0.0 1.0 1.0 0.0 0.0 1.0
8
1.0 0.0 1.0 0.0 1.0 0.0 0.0 1.0
8
1.0 0.0 0.0 1.0 0.0 1.0 1.0 0.0
8
1.0 0.0 1.0 0.0 0.0 1.0 0.0 1.0
8
0.0 1.0 0.0 1.0 1.0 0.0 0.0 1.0
8
1.0 0.0 1.0 0.0 0.0 1.0 1.0 0.0
8
0.0 1.0 1.0 0.0 0.0 1.0 0.0 1.0
8
1.0 0.0 1.0 0.0 1.0 0.0 0.0 1.0
8
1.0 0.0 1.0 0.0 1.0 0.0 0.0 1.0
8
0.0 1.0 0.0 1.0 1.0 0.0 1.0 0.0
8
1.0 0.0 0.0 1.0 0.0 1.0 1.0 0.0
8
0.0 1.0 0.0 1.0 1.0 0.0 0.0 1.0
8
1.0 0.0 1.0 0.0 1.0 0.0 0.0 1.0
8
0.362368 0.637632 0.337741 0.662259 0.843013 0.156987 0.514186 0.485814
8
0.0 1.0 1.0 0.0 0.0 1.0 0.0 1.0
8
0.0 1.0 0.0 1.0 1.0 0.0 1.0 0.0
4
0.0 1.0 1.0 0.0
8
1.0 0.0 0.0 1.0 1.0 0.0 1.0 0.0
8
0.0 1.0 1.0 0.0 0.0 1.0 1.0 0.0
8
1.0 0.0 0.0 1.0 0.0 1.0 0.0 1.0
8
1.0 0.0 1.0 0.0 1.0 0.0 0.0 1.0
8
1.0 0.0 1.0 0.0 0.0 1.0 0.0 1.0
8
1.0 0.0 1.0 0.0 1.0 0.0 0.0 1.0
8
0.0 1.0 0.0 1.0 1.0 0.0 1.0 0.0
8
0.742481 0.257519 0.581345 0.418655 0.963194 0.0368056 0.177461 0.822539
8
0.619251 0.380749 0.153518 0.846482 0.386642 0.613358 0.0395586 0.960441
8
0.0 1.0 1.0 0.0 1.0 0.0 1.0 0.0
8
0.0 1.0 1.0 0.0 0.0 1.0 0.0 1.0
8
0.0 1.0 0.0 1.0 0.0 1.0 1.0 0.0
8
0.0 1.0 0.0 1.0 1.0 0.0 0.0 1.0
8
0.854499 0.145501 0.328791 0.671209 0.667116 0.332884 0.47375 0.52625
8
1.0 0.0 1.0 0.0 1.0 0.0 0.0 1.0
8
0.0 1.0 1.0 0.0 0.0 1.0 0.0 1.0
8
0.312128 0.687872 0.264724 0.735276 0.424937 0.575063 0.490551 0.509449
8
0.689087 0.310913 0.255605 0.744395 0.851933 0.148067 0.768478 0.231522
8
1.0 0.0 0.0 1.0 1.0 0.0 1.0 0.0
8
0.0380957 0.961904 0.740905 0.259095 0.62819 0.37181 0.511846 0.488154
8
1.0 0.0 1.0 0.0 1.0 0.0 0.0 1.0
8
0.516271 0.483729 0.792586 0.207414 0.251655 0.748345 0.451248 0.548752
8
0.0 1.0 1.0 0.0 0.0 1.0 0.0 1.0
8
1.0 0.0 1.0 0.0 1.0 0.0 0.0 1.0
8
0.590516 0.409484 0.0722954 0.927705 0.985422 0.0145777 0.00262886 0.997371
4
0.0 1.0 1.0 0.0
8
0.0 1.0 0.0 1.0 0.0 1.0 1.0 0.0
8
0.0 1.0 1.0 0.0 1.0 0.0 1.0 0.0
8
0.0 1.0 0.0 1.0 1.0 0.0 1.0 0.0
8
1.0 0.0 0.0 1.0 1.0 0.0 0.0 1.0
8
0.0 1.0 0.0 1.0 0.0 1.0 1.0 0.0
8
1.0 0.0 0.0 1.0 0.0 1.0 0.0 1.0
8
0.0 1.0 0.0 1.0 0.0 1.0 1.0 0.0
8
1.0 0.0 0.0 1.0 1.0 0.0 0.0 1.0
8
1.0 0.0 0.0 1.0 0.0 1.0 0.0 1.0
8
0.699629 0.300371 0.262739 0.737261 0.536051 0.463949 0.239178 0.760822
8
0.474793 0.525207 0.776919 0.223081 0.381698 0.618302 0.00405164 0.995948
8
0.0 1.0 1.0 0.0 1.0 0.0 0.0 1.0
8
0.335324 0.664676 0.301541 0.698459 0.053527 0.946473 0.983796 0.0162044
8
0.459908 0.540092 0.0423616 0.957638 0.83383 0.16617 0.546772 0.453228
8
0.0 1.0 0.0 1.0 1.0 0.0 0.0 1.0
8
0.0264804 0.97352 0.543844 0.456156 0.141811 0.858189 0.562531 0.437469
8
0.0631167 0.936883 0.0373248 0.962675 0.559941 0.440059 0.444815 0.555185
8
1.0 0.0 1.0 0.0 1.0 0.0 0.0 1.0
8
0.0 1.0 1.0 0.0 1.0 0.0 1.0 0.0
8
1.0 0.0 1.0 0.0 0.0 1.0 0.0 1.0
8
1.0 0.0 0.0 1.0 1.0 0.0 0.0 1.0
8
0.0933217 0.906678 0.768266 0.231734 0.413774 0.586226 0.235133 0.764867
8
0.0 1.0 1.0 0.0 1.0 0.0 0.0 1.0
8
1.0 0.0 1.0 0.0 0.0 1.0 0.0 1.0
8
0.0 1.0 0.0 1.0 0.0 1.0 1.0 0.0
4
0.289847 0.710153 0.192742 0.807258
8
0.0 1.0 1.0 0.0 1.0 0.0 0.0 1.0
8
0.382929 0.617071 0.0127171 0.987283 0.659686 0.340314 0.47625 0.52375
8
0.07346 0.92654 0.711383 0.288617 0.111781 0.888219 0.270256 0.729744
8
0.0 1.0 0.0 1.0 0.0 1.0 1.0 0.0
8
0.0 1.0 1.0 0.0 0.0 1.0 1.0 0.0
8
0.0 1.0 1.0 0.0 0.0 1.0 0.0 1.0
8
0.323419 0.676581 0.764706 0.235294 0.957872 0.0421279 0.59435 0.40565
8
1.0 0.0 1.0 0.0 1.0 0.0 0.0 1.0
8
0.0 1.0 1.0 0.0 1.0 0.0 1.0 0.0
8
0.584857 0.415143 0.290763 0.709237 0.869138 0.130862 0.315484 0.684516
8
0.0 1.0 0.0 1.0 1.0 0.0 0.0 1.0
8
1.0 0.0 0.0 1.0 1.0 0.0 1.0 0.0
8
0.15024 0.84976 0.984798 0.0152019 0.813518 0.186482 0.74459 0.25541
8
1.0 0.0 1.0 0.0 0.0 1.0 0.0 1.0
8
0.0 1.0 1.0 0.0 1.0 0.0 1.0 0.0
8
1.0 0.0 1.0 0.0 0.0 1.0 0.0 1.0
8
0.0 1.0 0.0 1.0 0.0 1.0 1.0 0.0
8
0.358208 0.641792 0.0184106 0.981589 0.897278 0.102722 0.18503 0.81497
8
0.0 1.0 1.0 0.0 1.0 0.0 0.0 1.0
8
0.0 1.0 0.0 1.0 1.0 0.0 1.0 0.0
8
0.0 1.0 1.0 0.0 1.0 0.0 1.0 0.0
8
0.0 1.0 0.0 1.0 1.0 0.0 0.0 1.0
8
1.0 0.0 0.0 1.0 1.0 0.0 1.0 0.0
8
1.0 0.0 0.0 1.0 1.0 0.0 0.0 1.0
8
1.0 0.0 1.0 0.0 1.0 0.0 0.0 1.0
4
0.0 1.0 1.0 0.0
8
0.320447 0.679553 0.454915 0.545085 0.503653 0.496347 0.0125794 0.987421
8
1.0 0.0 0.0 1.0 1.0 0.0 1.0 0.0
8
1.0 0.0 1.0 0.0 0.0 1.0 0.0 1.0
8
0.937601 0.0623987 0.459926 0.540074 0.683604 0.316396 0.32064 0.67936
8
0.446927 0.553073 0.600958 0.399042 0.491432 0.508568 0.448753 0.551247
8
0.0 1.0 1.0 0.0 1.0 0.0 1.0 0.0
8
0.0 1.0 0.0 1.0 1.0 0.0 0.0 1.0
8
0.0 1.0 1.0 0.0 1.0 0.0 0.0 1.0
8
0.0 1.0 1.0 0.0 0.0 1.0 0.0 1.0
8
1.0 0.0 1.0 0.0 1.0 0.0 0.0 1.0
8
1.0 0.0 1.0 0.0 1.0 0.0 0.0 1.0
8
0.0 1.0 0.0 1.0 0.0 1.0 1.0 0.0
8
1.0 0.0 0.0 1.0 1.0 0.0 0.0 1.0
8
0.0 1.0 1.0 0.0 1.0 0.0 1.0 0.0
8
1.0 0.0 1.0 0.0 0.0 1.0 0.0 1.0
8
1.0 0.0 1.0 0.0 0.0 1.0 1.0 0.0
8
0.0 1.0 1.0 0.0 0.0 1.0 0.0 1.0
8
0.0 1.0 1.0 0.0 0.0 1.0 0.0 1.0
8
1.0 0.0 0.0 1.0 0.0 1.0 0.0 1.0
8
1.0 0.0 1.0 0.0 1.0 0.0 0.0 1.0
8
0.0 1.0 1.0 0.0 0.0 1.0 0.0 1.0
8
0.641134 0.358866 0.87415 0.12585 0.585355 0.414645 0.116404 0.883596
8
1.0 0.0 0.0 1.0 0.0 1.0 0.0 1.0
8
1.0 0.0 0.0 1.0 1.0 0.0 1.0 0.0
8
0.384563 0.615437 0.336628 0.663372 0.785717 0.214283 0.871507 0.128493
4
0.0 1.0 1.0 0.0
8
1.0 0.0 0.0 1.0 0.0 1.0 1.0 0.0
8
1.0 0.0 0.0 1.0 0.0 1.0 1.0 0.0
8
1.0 0.0 0.0 1.0 1.0 0.0 1.0 0.0
8
1.0 0.0 1.0 0.0 0.0 1.0 0.0 1.0
8
1.0 0.0 1.0 0.0 0.0 1.0 0.0 1.0
8
1.0 0.0 1.0 0.0 1.0 0.0 0.0 1.0
8
0.107382 0.892618 0.776333 0.223667 0.199739 0.800261 0.646676 0.353324
8
0.7785 0.2215 0.238726 0.761274 0.687876 0.312124 0.331723 0.668277
8
1.0 0.0 0.0 1.0 0.0 1.0 0.0 1.0
8
1.0 0.0 1.0 0.0 0.0 1.0 1.0 0.0
8
0.440834 0.559166 0.0440182 0.955982 0.324455 0.675545 0.229165 0.770835
8
0.0 1.0 1.0 0.0 0.0 1.0 1.0 0.0
8
0.0 1.0 1.0 0.0 0.0 1.0 1.0 0.0
8
0.0 1.0 1.0 0.0 0.0 1.0 0.0 1.0
8
0.0 1.0 1.0 0.0 0.0 1.0 0.0 1.0
8
0.0 1.0 1.0 0.0 1.0 0.0 1.0 0.0
8
1.0 0.0 1.0 0.0 0.0 1.0 0.0 1.0
8
0.0 1.0 1.0 0.0 0.0 1.0 0.0 1.0
8
0.0 1.0 1.0 0.0 0.0 1.0 0.0 1.0
8
0.0 1.0 1.0 0.0 0.0 1.0 1.0 0.0
8
0.0 1.0 0.0 1.0 1.0 0.0 0.0 1.0
8
0.0 1.0 0.0 1.0 1.0 0.0 0.0 1.0
8
0.0 1.0 1.0 0.0 1.0 0.0 0.0 1.0
8
0.606691 0.393309 0.966169 0.0338311 0.513037 0.486963 0.0263813 0.973619
8
1.0 0.0 0.0 1.0 0.0 1.0 0.0 1.0
4
0.4226 0.5774 0.463333 0.536667
8
0.0 1.0 1.0 0.0 1.0 0.0 0.0 1.0
8
1.0 0.0 0.0 1.0 0.0 1.0 1.0 0.0
8
0.839383 0.160617 0.490213 0.509787 0.0196409 0.980359 0.800356 0.199644
8
0.0 1.0 1.0 0.0 0.0 1.0 0.0 1.0
8
1.0 0.0 0.0 1.0 1.0 0.0 0.0 1.0
8
1.0 0.0 0.0 1.0 1.0 0.0 1.0 0.0
8
1.0 0.0 1.0 0.0 0.0 1.0 0.0 1.0
8
0.909186 0.0908136 0.189474 0.810526 0.308234 0.691766 0.939905 0.0600946
8
0.0732204 0.92678 0.779288 0.220712 0.400752 0.599248 0.0928614 0.907139
8
1.0 0.0 0.0 1.0 0.0 1.0 1.0 0.0
8
1.0 0.0 0.0 1.0 0.0 1.0 0.0 1.0
8
0.802068 0.197932 0.0564903 0.94351 0.0491867 0.950813 0.655487 0.344513
8
0.693277 0.306723 0.915705 0.0842948 0.275505 0.724495 0.394524 0.605476
8
1.0 0.0 0.0 1.0 0.0 1.0 1.0 0.0
8
0.0 1.0 1.0 0.0 0.0 1.0 0.0 1.0
8
1.0 0.0 0.0 1.0 1.0 0.0 0.0 1.0
8
0.323267 0.676733 0.887437 0.112563 0.380869 0.619131 0.694516 0.305484
8
0.0 1.0 1.0 0.0 1.0 0.0 0.0 1.0
8
1.0 0.0 0.0 1.0 1.0 0.0 0.0 1.0
8
1.0 0.0 1.0 0.0 0.0 1.0 1.0 0.0
8
1.0 0.0 1.0 0.0 1.0 0.0 0.0 1.0
8
0.0 1.0 1.0 0.0 0.0 1.0 0.0 1.0
8
0.0 1.0 0.0 1.0 1.0 0.0 0.0 1.0
8
0.0 1.0 0.0 1.0 1.0 0.0 0.0 1.0
8
0.0 1.0 1.0 0.0 0.0 1.0 0.0 1.0
4
1.0 0.0 0.0 1.0
8
1.0 0.0 1.0 0.0 1.0 0.0 0.0 1.0
8
0.780982 0.219018 0.39973 0.60027 0.685148 0.314852 0.339866 0.660134
8
0.0 1.0 1.0 0.0 1.0 0.0 0.0 1.0
8
0.121925 0.878075 0.594584 0.405416 0.914667 0.0853331 0.430008 0.569992
8
1.0 0.0 0.0 1.0 0.0 1.0 1.0 0.0
8
0.0 1.0 1.0 0.0 0.0 1.0 1.0 0.0
8
1.0 0.0 0.0 1.0 1.0 0.0 0.0 1.0
8
0.0 1.0 1.0 0.0 1.0 0.0 1.0 0.0
8
0.0 1.0 1.0 0.0 0.0 1.0 1.0 0.0
8
0.38829 0.61171 0.546032 0.453968 0.577071 0.422929 0.302957 0.697043
8
0.66856 0.33144 0.486948 0.513052 0.866203 0.133797 0.777195 0.222805
8
0.284299 0.715701 0.698724 0.301276 0.591071 0.408929 0.980105 0.0198951
8
0.0 1.0 1.0 0.0 1.0 0.0 1.0 0.0
8
0.0 1.0 1.0 0.0 0.0 1.0 0.0 1.0
8
1.0 0.0 0.0 1.0 0.0 1.0 0.0 1.0
8
0.0 1.0 1.0 0.0 1.0 0.0 1.0 0.0
8
1.0 0.0 1.0 0.0 0.0 1.0 1.0 0.0
8
0.67791 0.32209 0.0926164 0.907384 0.345397 0.654603 0.658015 0.341985
8
1.0 0.0 1.0 0.0 1.0 0.0 0.0 1.0
8
0.0 1.0 1.0 0.0 1.0 0.0 0.0 1.0
8
1.0 0.0 0.0 1.0 1.0 0.0 1.0 0.0
8
1.0 0.0 0.0 1.0 0.0 1.0 1.0 0.0
8
0.0 1.0 0.0 1.0 0.0 1.0 1.0 0.0
8
0.0 1.0 0.0 1.0 0.0 1.0 1.0 0.0
8
0.909024 0.0909759 0.687479 0.312521 0.294391 0.705609 0.442028 0.557972
4
1.0 0.0 0.0 1.0
8
1.0 0.0 1.0 0.0 0.0 1.0 1.0 0.0
8
0.0 1.0 0.0 1.0 1.0 0.0 1.0 0.0
8
1.0 0.0 0.0 1.0 1.0 0.0 0.0 1.0
8
1.0 0.0 0.0 1.0 1.0 0.0 1.0 0.0
8
0.0 1.0 0.0 1.0 0.0 1.0 1.0 0.0
8
0.0 1.0 1.0 0.0 1.0 0.0 1.0 0.0
8
0.0 1.0 0.0 1.0 0.0 1.0 1.0 0.0
8
1.0 0.0 0.0 1.0 1.0 0.0 0.0 1.0
8
0.0 1.0 0.0 1.0 1.0 0.0 0.0 1.0
8
0.311066 0.688934 0.713437 0.286563 0.791892 0.208108 0.131737 0.868263
8
0.91615 0.0838501 0.355234 0.644766 0.830164 0.169836 0.983147 0.0168526
8
1.0 0.0 0.0 1.0 0.0 1.0 0.0 1.0
8
0.0 1.0 1.0 0.0 1.0 0.0 0.0 1.0
8
1.0 0.0 1.0 0.0 0.0 1.0 0.0 1.0
8
0.0 1.0 1.0 0.0 0.0 1.0 1.0 0.0
8
1.0 0.0 1.0 0.0 0.0 1.0 1.0 0.0
8
1.0 0.0 1.0 0.0 0.0 1.0 0.0 1.0
8
0.23687 0.76313 0.633822 0.366178 0.100539 0.899461 0.299174 0.700826
8
0.0 1.0 1.0 0.0 1.0 0.0 1.0 0.0
8
0.786079 0.213921 0.866582 0.133418 0.477366 0.522634 0.730097 0.269903
8
1.0 0.0 0.0 1.0 0.0 1.0 1.0 0.0
8
0.831222 0.168778 0.0474532 0.952547 0.0937908 0.906209 0.287072 0.712928
8
0.487671 0.512329 0.669219 0.330781 0.677015 0.322985 0.236786 0.763214
8
0.433018 0.566982 0.473655 0.526345 0.515353 0.484647 0.533557 0.466443
8
0.206134 0.793866 0.214425 0.785575 0.231202 0.768798 0.960124 0.0398759
4
1.0 0.0 0.0 1.0
8
1.0 0.0 0.0 1.0 1.0 0.0 1.0 0.0
8
1.0 0.0 1.0 0.0 1.0 0.0 0.0 1.0
8
0.0 1.0 1.0 0.0 1.0 0.0 1.0 0.0
8
0.0067672 0.993233 0.526919 0.473081 0.407706 0.592294 0.480422 0.519578
8
1.0 0.0 1.0 0.0 0.0 1.0 0.0 1.0
8
0.0 1.0 0.0 1.0 1.0 0.0 1.0 0.0
8
1.0 0.0 0.0 1.0 1.0 0.0 1.0 0.0
8
0.0690157 0.930984 0.703046 0.296954 0.976426 0.0235743 0.758112 0.241888
8
0.0 1.0 1.0 0.0 0.0 1.0 1.0 0.0
8
0.0 1.0 0.0 1.0 1.0 0.0 0.0 1.0
8
1.0 0.0 1.0 0.0 0.0 1.0 0.0 1.0
8
0.253613 0.746387 0.405795 0.594205 0.73917 0.26083 0.753938 0.246062
8
1.0 0.0 0.0 1.0 1.0 0.0 0.0 1.0
8
0.0 1.0 1.0 0.0 1.0 0.0 1.0 0.0
8
0.0 1.0 1.0 0.0 0.0 1.0 1.0 0.0
8
0.333464 0.666536 0.66725 0.33275 0.878834 0.121166 0.240052 0.759948
8
1.0 0.0 1.0 0.0 0.0 1.0 1.0 0.0
8
1.0 0.0 1.0 0.0 1.0 0.0 0.0 1.0
8
0.0 1.0 0.0 1.0 1.0 0.0 1.0 0.0
8
0.0 1.0 0.0 1.0 1.0 0.0 1.0 0.0
8
0.0 1.0 0.0 1.0 1.0 0.0 1.0 0.0
8
0.0 1.0 1.0 0.0 0.0 1.0 1.0 0.0
8
1.0 0.0 0.0 1.0 1.0 0.0 1.0 0.0
8
0.0 1.0 0.0 1.0 1.0 0.0 0.0 1.0
8
0.0 1.0 0.0 1.0 1.0 0.0 0.0 1.0
4
0.0 1.0 1.0 0.0
8
0.0 1.0 0.0 1.0 1.0 0.0 1.0 0.0
8
0.0 1.0 0.0 1.0 1.0 0.0 0.0 1.0
8
1.0 0.0 1.0 0.0 1.0 0.0 0.0 1.0
8
0.859551 0.140449 0.457173 0.542827 0.0565351 0.943465 0.991015 0.00898492
8
0.648934 0.351066 0.914451 0.0855488 0.914996 0.0850039 0.412785 0.587215
8
0.986934 0.0130658 0.0955911 0.904409 0.0103898 0.98961 0.407023 0.592977
8
0.553924 0.446076 0.636664 0.363336 0.339064 0.660936 0.176885 0.823115
8
0.61136 0.38864 0.693905 0.306095 0.136936 0.863064 0.917056 0.0829443
8
0.694825 0.305175 0.923401 0.076599 0.818999 0.181001 0.80909 0.19091
8
1.0 0.0 0.0 1.0 1.0 0.0 1.0 0.0
8
0.0 1.0 0.0 1.0 1.0 0.0 1.0 0.0
8
1.0 0.0 1.0 0.0 0.0 1.0 0.0 1.0
8
1.0 0.0 0.0 1.0 1.0 0.0 1.0 0.0
8
1.0 0.0 0.0 1.0 1.0 0.0 0.0 1.0
8
0.00302118 0.996979 0.507216 0.492784 0.76693 0.23307 0.812111 0.187889
8
0.0 1.0 1.0 0.0 1.0 0.0 1.0 0.0
8
1.0 0.0 1.0 0.0 0.0 1.0 0.0 1.0
8
1.0 0.0 0.0 1.0 1.0 0.0 1.0 0.0
8
0.0 1.0 0.0 1.0 0.0 1.0 1.0 0.0
8
1.0 0.0 0.0 1.0 0.0 1.0 0.0 1.0
8
0.0 1.0 1.0 0.0 0.0 1.0 1.0 0.0
8
0.0 1.0 1.0 0.0 0.0 1.0 1.0 0.0
8
0.0 1.0 0.0 1.0 1.0 0.0 1.0 0.0
8
0.0 1.0 0.0 1.0 1.0 0.0 1.0 0.0
8
1.0 0.0 0.0 1.0 0.0 1.0 0.0 1.0
4
0.0 1.0 1.0 0.0
8
0.0 1.0 1.0 0.0 1.0 0.0 0.0 1.0
8
0.0 1.0 1.0 0.0 1.0 0.0 1.0 0.0
8
0.867301 0.132699 0.418438 0.581562 0.503495 0.496505 0.562506 0.437494
8
1.0 0.0 0.0 1.0 0.0 1.0 0.0 1.0
8
1.0 0.0 1.0 0.0 0.0 1.0 1.0 0.0
8
0.0 1.0 1.0 0.0 1.0 0.0 1.0 0.0
8
0.0 1.0 1.0 0.0 1.0 0.0 1.0 0.0
8
0.0 1.0 1.0 0.0 1.0 0.0 1.0 0.0
8
0.0 1.0 0.0 1.0 1.0 0.0 1.0 0.0
8
0.606966 0.393034 0.481577 0.518423 0.699159 0.300841 0.243011 0.756989
8
0.0 1.0 0.0 1.0 1.0 0.0 0.0 1.0
8
0.0 1.0 0.0 1.0 0.0 1.0 1.0 0.0
8
0.0 1.0 1.0 0.0 1.0 0.0 1.0 0.0
8
1.0 0.0 0.0 1.0 1.0 0.0 0.0 1.0
8
1.0 0.0 0.0 1.0 1.0 0.0 0.0 1.0
8
0.0 1.0 0.0 1.0 1.0 0.0 0.0 1.0
8
0.0 1.0 0.0 1.0 1.0 0.0 1.0 0.0
8
0.315376 0.684624 0.701082 0.298918 0.0356748 0.964325 0.481338 0.518662
8
1.0 0.0 1.0 0.0 1.0 0.0 0.0 1.0
8
1.0 0.0 1.0 0.0 1.0 0.0 0.0 1.0
8
0.0 1.0 1.0 0.0 0.0 1.0 0.0 1.0
8
0.967894 0.0321061 0.402075 0.597925 0.830285 0.169715 0.572669 0.427331
8
1.0 0.0 1.0 0.0 0.0 1.0 1.0 0.0
8
0.227951 0.772049 0.943868 0.0561319 0.588125 0.411875 0.263626 0.736374
8
1.0 0.0 0.0 1.0 0.0 1.0 0.0 1.0
4
1.0 0.0 0.0 1.0
8
0.539031 0.460969 0.209523 0.790477 0.863439 0.136561 0.207162 0.792838
8
0.0 1.0 1.0 0.0 0.0 1.0 1.0 0.0
8
1.0 0.0 1.0 0.0 0.0 1.0 1.0 0.0
8
0.0 1.0 0.0 1.0 0.0 1.0 1.0 0.0
8
1.0 0.0 1.0 0.0 1.0 0.0 0.0 1.0
8
1.0 0.0 0.0 1.0 1.0 0.0 1.0 0.0
8
1.0 0.0 0.0 1.0 1.0 0.0 1.0 0.0
8
1.0 0.0 0.0 1.0 0.0 1.0 1.0 0.0
8
1.0 0.0 0.0 1.0 0.0 1.0 0.0 1.0
8
0.0 1.0 0.0 1.0 1.0 0.0 1.0 0.0
8
1.0 0.0 1.0 0.0 0.0 1.0 1.0 0.0
8
0.572274 0.427726 0.728953 0.271047 0.762625 0.237375 0.0349095 0.965091
8
1.0 0.0 0.0 1.0 1.0 0.0 1.0 0.0
8
0.0 1.0 0.0 1.0 1.0 0.0 0.0 1.0
8
1.0 0.0 1.0 0.0 0.0 1.0 0.0 1.0
8
1.0 0.0 0.0 1.0 0.0 1.0 1.0 0.0
8
0.903428 0.0965717 0.43806 0.56194 0.565082 0.434918 0.617391 0.382609
8
0.0 1.0 0.0 1.0 0.0 1.0 1.0 0.0
8
0.0 1.0 0.0 1.0 1.0 0.0 1.0 0.0
8
0.506556 0.493444 0.78044 0.21956 0.455547 0.544453 0.0126483 0.987352
8
1.0 0.0 1.0 0.0 1.0 0.0 0.0 1.0
8
0.725915 0.274085 0.497124 0.502876 0.983472 0.016528 0.627482 0.372518
8
1.0 0.0 0.0 1.0 0.0 1.0 1.0 0.0
8
1.0 0.0 1.0 0.0 1.0 0.0 0.0 1.0
8
0.827788 0.172212 0.303237 0.696763 0.17968 0.82032 0.401386 0.598614
4
1.0 0.0 0.0 1.0
8
0.0 1.0 1.0 0.0 1.0 0.0 1.0 0.0
8
1.0 0.0 1.0 0.0 1.0 0.0 0.0 1.0
8
1.0 0.0 0.0 1.0 0.0 1.0 0.0 1.0
8
0.0 1.0 1.0 0.0 1.0 0.0 1.0 0.0
8
0.0 1.0 1.0 0.0 1.0 0.0 1.0 0.0
8
0.816993 0.183007 0.442837 0.557163 0.078353 0.921647 0.50323 0.49677
8
0.0 1.0 1.0 0.0 0.0 1.0 1.0 0.0
8
1.0 0.0 0.0 1.0 0.0 1.0 1.0 0.0
8
0.0 1.0 0.0 1.0 1.0 0.0 0.0 1.0
8
0.507767 0.492233 0.4829 0.5171 0.54687 0.45313 0.46632 0.53368
8
1.0 0.0 0.0 1.0 0.0 1.0 0.0 1.0
8
0.65599 0.34401 0.244821 0.755179 0.836922 0.163078 0.15922 0.84078
8
0.651432 0.348568 0.361335 0.638665 0.683913 0.316087 0.00279132 0.997209
8
1.0 0.0 0.0 1.0 1.0 0.0 0.0 1.0
8
1.0 0.0 0.0 1.0 1.0 0.0 0.0 1.0
8
1.0 0.0 1.0 0.0 1.0 0.0 0.0 1.0
8
0.0 1.0 1.0 0.0 1.0 0.0 1.0 0.0
8
0.0 1.0 0.0 1.0 1.0 0.0 1.0 0.0
8
1.0 0.0 1.0 0.0 0.0 1.0 1.0 0.0
8
0.745279 0.254721 0.219012 0.780988 0.517115 0.482885 0.386826 0.613174
8
1.0 0.0 0.0 1.0 0.0 1.0 1.0 0.0
8
0.0 1.0 0.0 1.0 0.0 1.0 1.0 0.0
8
0.244862 0.755138 0.676366 0.323634 0.568374 0.431626 0.805599 0.194401
8
0.0 1.0 1.0 0.0 1.0 0.0 0.0 1.0
8
1.0 0.0 1.0 0.0 0.0 1.0 0.0 1.0